set I := 0 1 2 3 4 5 6 7 8 9 10 11 12 13 14 15 16 17 18 19 20 21 22 23 24 25 26 27 28 29 30 31 32 33 34;

param cap := 150;

param: size:=
    0 100
    1 99
    2 97
    3 94
    4 91
    5 89
    6 87
    7 84
    8 82
    9 80
    10 78
    11 74
    12 72
    13 69
    14 67
    15 65
    16 62
    17 60
    18 58
    19 56
    20 54
    21 53
    22 50
    23 48
    24 46
    25 44
    26 42
    27 40
    28 37
    29 34
    30 32
    31 30
    32 27
    33 24
    34 21;
